Iteraciones:   243 

Costo         Vehículos     Tiempo [seg]
 577,531       7             0,155 
 577,531       7             0,312 
 577,531       7             0,421 
 577,531       7             0,515 
 577,531       7             0,593 
 577,531       7             0,687 
 577,531       7             0,78 
 577,531       7             0,859 
 577,531       7             0,937 
 577,531       7             1,03 
 577,531       7             1,109 
 577,531       7             1,187 
 577,531       7             1,265 
 577,531       7             1,343 
 577,531       7             1,421 
 577,531       7             1,499 
 577,531       7             1,593 
 577,531       7             1,671 
 577,531       7             1,749 
 577,531       7             1,827 
 577,531       7             1,905 
 577,531       7             1,984 
 577,531       7             2,062 
 577,531       7             2,14 
 577,531       7             2,218 
 577,531       7             2,296 
 577,531       7             2,374 
 577,531       7             2,452 
 577,531       7             2,546 
 577,531       7             2,624 
 570,548       7             2,702 
 570,548       7             2,78 
 569,994       7             2,859 
 569,994       7             2,937 
 569,994       7             3,015 
 569,994       7             3,093 
 569,994       7             3,156 
 569,994       7             3,234 
 569,994       7             3,312 
 569,994       7             3,39 
 569,994       7             3,452 
 569,994       7             3,531 
 569,994       7             3,609 
 569,994       7             3,687 
 569,994       7             3,749 
 569,994       7             3,827 
 569,994       7             3,906 
 569,994       7             3,968 
 569,994       7             4,046 
 569,994       7             4,124 
 569,994       7             4,202 
 569,994       7             4,281 
 569,994       7             4,343 
 569,994       7             4,421 
 569,994       7             4,499 
 569,994       7             4,577 
 569,994       7             4,64 
 569,994       7             4,718 
 569,994       7             4,796 
 569,994       7             4,874 
 569,994       7             4,937 
 569,994       7             5,015 
 569,994       7             5,093 
 569,994       7             5,171 
 569,994       7             5,249 
 569,994       7             5,327 
 569,994       7             5,39 
 569,994       7             5,468 
 569,994       7             5,546 
 569,994       7             5,624 
 569,994       7             5,703 
 569,994       7             5,781 
 569,994       7             5,843 
 569,994       7             5,921 
 569,994       7             5,999 
 569,994       7             6,078 
 569,994       7             6,156 
 569,994       7             6,218 
 569,994       7             6,296 
 569,994       7             6,359 
 569,994       7             6,437 
 569,994       7             6,515 
 569,994       7             6,593 
 569,994       7             6,656 
 569,994       7             6,734 
 569,994       7             6,812 
 569,994       7             6,89 
 569,994       7             6,953 
 569,994       7             7,031 
 569,994       7             7,109 
 569,994       7             7,187 
 569,994       7             7,249 
 569,994       7             7,328 
 569,994       7             7,406 
 569,994       7             7,484 
 569,994       7             7,546 
 569,994       7             7,624 
 569,994       7             7,703 
 569,994       7             7,781 
 569,994       7             7,859 
 569,994       7             7,921 
 569,994       7             8 
 569,994       7             8,078 
 569,994       7             8,156 
 569,994       7             8,234 
 569,994       7             8,296 
 569,994       7             8,375 
 569,994       7             8,453 
 569,994       7             8,531 
 569,994       7             8,593 
 569,994       7             8,671 
 569,994       7             8,75 
 569,994       7             8,828 
 569,994       7             8,89 
 569,994       7             8,968 
 569,994       7             9,046 
 569,994       7             9,125 
 569,994       7             9,203 
 569,994       7             9,265 
 569,994       7             9,343 
 569,994       7             9,406 
 569,994       7             9,484 
 569,994       7             9,562 
 569,994       7             9,625 
 569,994       7             9,718 
 569,994       7             9,781 
 569,994       7             9,859 
 569,994       7             9,937 
 569,994       7             10 
 569,994       7             10,078 
 569,994       7             10,156 
 569,994       7             10,234 
 569,994       7             10,296 
 569,994       7             10,375 
 569,994       7             10,453 
 569,994       7             10,531 
 569,994       7             10,593 
 569,994       7             10,672 
 569,994       7             10,75 
 569,994       7             10,828 
 569,994       7             10,906 
 569,994       7             10,968 
 567,745       7             11,047 
 567,745       7             11,125 
 567,745       7             11,187 
 567,745       7             11,265 
 567,745       7             11,343 
 567,745       7             11,406 
 567,745       7             11,484 
 567,745       7             11,562 
 567,745       7             11,64 
 567,745       7             11,718 
 567,745       7             11,781 
 567,745       7             11,859 
 567,745       7             11,937 
 567,745       7             12,015 
 567,745       7             12,093 
 567,745       7             12,156 
 567,745       7             12,234 
 567,745       7             12,312 
 567,745       7             12,39 
 567,745       7             12,468 
 567,745       7             12,531 
 567,745       7             12,609 
 567,745       7             12,687 
 567,745       7             12,765 
 567,745       7             12,844 
 567,745       7             12,906 
 567,745       7             12,984 
 567,745       7             13,062 
 567,745       7             13,125 
 567,745       7             13,203 
 567,745       7             13,281 
 567,745       7             13,359 
 567,745       7             13,437 
 567,745       7             13,5 
 567,745       7             13,578 
 567,745       7             13,656 
 567,745       7             13,734 
 567,745       7             13,797 
 567,745       7             13,875 
 567,745       7             13,953 
 567,745       7             14,031 
 567,745       7             14,094 
 567,745       7             14,172 
 567,745       7             14,25 
 567,745       7             14,312 
 567,745       7             14,39 
 567,745       7             14,469 
 567,745       7             14,531 
 567,745       7             14,609 
 567,745       7             14,687 
 567,745       7             14,765 
 567,745       7             14,844 
 567,745       7             14,906 
 567,745       7             14,984 
 567,745       7             15,062 
 567,745       7             15,125 
 567,745       7             15,203 
 567,745       7             15,281 
 567,745       7             15,359 
 567,745       7             15,422 
 567,745       7             15,516 
 567,745       7             15,578 
 567,745       7             15,656 
 567,745       7             15,734 
 567,745       7             15,797 
 567,745       7             15,875 
 567,745       7             15,953 
 567,745       7             16,016 
 567,745       7             16,094 
 567,745       7             16,172 
 567,745       7             16,25 
 567,745       7             16,312 
 567,745       7             16,391 
 567,745       7             16,469 
 567,745       7             16,531 
 567,745       7             16,609 
 567,745       7             16,687 
 567,745       7             16,766 
 567,745       7             16,828 
 567,745       7             16,906 
 567,745       7             16,984 
 567,745       7             17,062 
 567,745       7             17,141 
 567,745       7             17,203 
 567,745       7             17,281 
 567,745       7             17,359 
 567,745       7             17,437 
 567,745       7             17,516 
 567,745       7             17,578 
 567,745       7             17,656 
 567,745       7             17,734 
 567,745       7             17,813 
 567,745       7             17,891 
 567,745       7             17,953 
 567,745       7             18,031 
 567,745       7             18,109 
 567,745       7             18,188 
 567,745       7             18,25 
 567,745       7             18,328 
 567,745       7             18,406 
 567,745       7             18,484 
